NAME : prob15b
TYPE : PDTSP
DIMENSION : 31
EDGE_WEIGHT_TYPE : EUC_2D
NODE_COORD_SECTION
1 205 620
2 457 958
3 377 436
4 829 637
5 199 393
6 989 308
7 908 533
8 298 73
9 265 720
10 773 807
11 321 451
12 582 81
13 534 938
14 331 148
15 928 684
16 948 175
17 741 865
18 262 427
19 315 120
20 58 359
21 366 296
22 338 38
23 960 471
24 278 116
25 383 81
26 283 776
27 132 375
28 216 2
29 579 903
30 150 930
31 819 385
PICKUP_AND_DELIVERY_SECTION
1 0 0 0 0 0 0
2 0 0 0 0 17 0
3 0 0 0 0 18 0
4 0 0 0 0 19 0
5 0 0 0 0 20 0
6 0 0 0 0 21 0
7 0 0 0 0 22 0
8 0 0 0 0 23 0
9 0 0 0 0 24 0
10 0 0 0 0 25 0
11 0 0 0 0 26 0
12 0 0 0 0 27 0
13 0 0 0 0 28 0
14 0 0 0 0 29 0
15 0 0 0 0 30 0
16 0 0 0 0 31 0
17 0 0 0 0 0 2
18 0 0 0 0 0 3
19 0 0 0 0 0 4
20 0 0 0 0 0 5
21 0 0 0 0 0 6
22 0 0 0 0 0 7
23 0 0 0 0 0 8
24 0 0 0 0 0 9
25 0 0 0 0 0 10
26 0 0 0 0 0 11
27 0 0 0 0 0 12
28 0 0 0 0 0 13
29 0 0 0 0 0 14
30 0 0 0 0 0 15
31 0 0 0 0 0 16
DEPOT_SECTION
1 
-1
EOF
